SAT
10 -118 -122 123 -142 49 98 135 116 -11 25 -29 19 -54 -114 112 -66 -41 -13 -1 -68 26 -133 -73 107 -115 -140 -12 21 -96 -101 -39 121 -102 126 -88 -104 62 18 -58 106 -50 16 47 -28 -128 137 -56 -55 -87 148 -37 134 -5 -20 -53 -70 8 86 31 -78 -146 -43 -110 -93 -67 -44 124 69 -9 108 144 -143 130 79 30 71 24 97 -95 100 -15 74 -83 127 85 61 82 23 46 -72 57 80 -149 -65 45 -91 4 90 -103 14 77 40 22 120 -125 -27 -42 -36 119 -109 63 -38 145 -64 -132 113 17 -84 81 -6 136 -92 105 -60 111 147 -94 33 131 -59 139 -141 -32 117 -89 -138 -150 99 129 76 -35 51 -3 -34 -7 48 -2 -75 -52 0
